p cnf 350 2568
1 2 3 4 5 6 7 0
8 9 10 11 12 13 14 0
15 16 17 18 19 20 21 0
22 23 24 25 26 27 28 0
29 30 31 32 33 34 35 0
36 37 38 39 40 41 42 0
43 44 45 46 47 48 49 0
50 51 52 53 54 55 56 0
57 58 59 60 61 62 63 0
64 65 66 67 68 69 70 0
71 72 73 74 75 76 77 0
78 79 80 81 82 83 84 0
85 86 87 88 89 90 91 0
92 93 94 95 96 97 98 0
99 100 101 102 103 104 105 0
106 107 108 109 110 111 112 0
113 114 115 116 117 118 119 0
120 121 122 123 124 125 126 0
127 128 129 130 131 132 133 0
134 135 136 137 138 139 140 0
141 142 143 144 145 146 147 0
148 149 150 151 152 153 154 0
155 156 157 158 159 160 161 0
162 163 164 165 166 167 168 0
169 170 171 172 173 174 175 0
176 177 178 179 180 181 182 0
183 184 185 186 187 188 189 0
190 191 192 193 194 195 196 0
197 198 199 200 201 202 203 0
204 205 206 207 208 209 210 0
211 212 213 214 215 216 217 0
218 219 220 221 222 223 224 0
225 226 227 228 229 230 231 0
232 233 234 235 236 237 238 0
239 240 241 242 243 244 245 0
246 247 248 249 250 251 252 0
253 254 255 256 257 258 259 0
260 261 262 263 264 265 266 0
267 268 269 270 271 272 273 0
274 275 276 277 278 279 280 0
281 282 283 284 285 286 287 0
288 289 290 291 292 293 294 0
295 296 297 298 299 300 301 0
302 303 304 305 306 307 308 0
309 310 311 312 313 314 315 0
316 317 318 319 320 321 322 0
323 324 325 326 327 328 329 0
330 331 332 333 334 335 336 0
337 338 339 340 341 342 343 0
344 345 346 347 348 349 350 0
-1 -2 0
-1 -3 0
-1 -4 0
-1 -5 0
-1 -6 0
-1 -7 0
-2 -3 0
-2 -4 0
-2 -5 0
-2 -6 0
-2 -7 0
-3 -4 0
-3 -5 0
-3 -6 0
-3 -7 0
-4 -5 0
-4 -6 0
-4 -7 0
-5 -6 0
-5 -7 0
-6 -7 0
-8 -9 0
-8 -10 0
-8 -11 0
-8 -12 0
-8 -13 0
-8 -14 0
-9 -10 0
-9 -11 0
-9 -12 0
-9 -13 0
-9 -14 0
-10 -11 0
-10 -12 0
-10 -13 0
-10 -14 0
-11 -12 0
-11 -13 0
-11 -14 0
-12 -13 0
-12 -14 0
-13 -14 0
-15 -16 0
-15 -17 0
-15 -18 0
-15 -19 0
-15 -20 0
-15 -21 0
-16 -17 0
-16 -18 0
-16 -19 0
-16 -20 0
-16 -21 0
-17 -18 0
-17 -19 0
-17 -20 0
-17 -21 0
-18 -19 0
-18 -20 0
-18 -21 0
-19 -20 0
-19 -21 0
-20 -21 0
-22 -23 0
-22 -24 0
-22 -25 0
-22 -26 0
-22 -27 0
-22 -28 0
-23 -24 0
-23 -25 0
-23 -26 0
-23 -27 0
-23 -28 0
-24 -25 0
-24 -26 0
-24 -27 0
-24 -28 0
-25 -26 0
-25 -27 0
-25 -28 0
-26 -27 0
-26 -28 0
-27 -28 0
-29 -30 0
-29 -31 0
-29 -32 0
-29 -33 0
-29 -34 0
-29 -35 0
-30 -31 0
-30 -32 0
-30 -33 0
-30 -34 0
-30 -35 0
-31 -32 0
-31 -33 0
-31 -34 0
-31 -35 0
-32 -33 0
-32 -34 0
-32 -35 0
-33 -34 0
-33 -35 0
-34 -35 0
-36 -37 0
-36 -38 0
-36 -39 0
-36 -40 0
-36 -41 0
-36 -42 0
-37 -38 0
-37 -39 0
-37 -40 0
-37 -41 0
-37 -42 0
-38 -39 0
-38 -40 0
-38 -41 0
-38 -42 0
-39 -40 0
-39 -41 0
-39 -42 0
-40 -41 0
-40 -42 0
-41 -42 0
-43 -44 0
-43 -45 0
-43 -46 0
-43 -47 0
-43 -48 0
-43 -49 0
-44 -45 0
-44 -46 0
-44 -47 0
-44 -48 0
-44 -49 0
-45 -46 0
-45 -47 0
-45 -48 0
-45 -49 0
-46 -47 0
-46 -48 0
-46 -49 0
-47 -48 0
-47 -49 0
-48 -49 0
-50 -51 0
-50 -52 0
-50 -53 0
-50 -54 0
-50 -55 0
-50 -56 0
-51 -52 0
-51 -53 0
-51 -54 0
-51 -55 0
-51 -56 0
-52 -53 0
-52 -54 0
-52 -55 0
-52 -56 0
-53 -54 0
-53 -55 0
-53 -56 0
-54 -55 0
-54 -56 0
-55 -56 0
-57 -58 0
-57 -59 0
-57 -60 0
-57 -61 0
-57 -62 0
-57 -63 0
-58 -59 0
-58 -60 0
-58 -61 0
-58 -62 0
-58 -63 0
-59 -60 0
-59 -61 0
-59 -62 0
-59 -63 0
-60 -61 0
-60 -62 0
-60 -63 0
-61 -62 0
-61 -63 0
-62 -63 0
-64 -65 0
-64 -66 0
-64 -67 0
-64 -68 0
-64 -69 0
-64 -70 0
-65 -66 0
-65 -67 0
-65 -68 0
-65 -69 0
-65 -70 0
-66 -67 0
-66 -68 0
-66 -69 0
-66 -70 0
-67 -68 0
-67 -69 0
-67 -70 0
-68 -69 0
-68 -70 0
-69 -70 0
-71 -72 0
-71 -73 0
-71 -74 0
-71 -75 0
-71 -76 0
-71 -77 0
-72 -73 0
-72 -74 0
-72 -75 0
-72 -76 0
-72 -77 0
-73 -74 0
-73 -75 0
-73 -76 0
-73 -77 0
-74 -75 0
-74 -76 0
-74 -77 0
-75 -76 0
-75 -77 0
-76 -77 0
-78 -79 0
-78 -80 0
-78 -81 0
-78 -82 0
-78 -83 0
-78 -84 0
-79 -80 0
-79 -81 0
-79 -82 0
-79 -83 0
-79 -84 0
-80 -81 0
-80 -82 0
-80 -83 0
-80 -84 0
-81 -82 0
-81 -83 0
-81 -84 0
-82 -83 0
-82 -84 0
-83 -84 0
-85 -86 0
-85 -87 0
-85 -88 0
-85 -89 0
-85 -90 0
-85 -91 0
-86 -87 0
-86 -88 0
-86 -89 0
-86 -90 0
-86 -91 0
-87 -88 0
-87 -89 0
-87 -90 0
-87 -91 0
-88 -89 0
-88 -90 0
-88 -91 0
-89 -90 0
-89 -91 0
-90 -91 0
-92 -93 0
-92 -94 0
-92 -95 0
-92 -96 0
-92 -97 0
-92 -98 0
-93 -94 0
-93 -95 0
-93 -96 0
-93 -97 0
-93 -98 0
-94 -95 0
-94 -96 0
-94 -97 0
-94 -98 0
-95 -96 0
-95 -97 0
-95 -98 0
-96 -97 0
-96 -98 0
-97 -98 0
-99 -100 0
-99 -101 0
-99 -102 0
-99 -103 0
-99 -104 0
-99 -105 0
-100 -101 0
-100 -102 0
-100 -103 0
-100 -104 0
-100 -105 0
-101 -102 0
-101 -103 0
-101 -104 0
-101 -105 0
-102 -103 0
-102 -104 0
-102 -105 0
-103 -104 0
-103 -105 0
-104 -105 0
-106 -107 0
-106 -108 0
-106 -109 0
-106 -110 0
-106 -111 0
-106 -112 0
-107 -108 0
-107 -109 0
-107 -110 0
-107 -111 0
-107 -112 0
-108 -109 0
-108 -110 0
-108 -111 0
-108 -112 0
-109 -110 0
-109 -111 0
-109 -112 0
-110 -111 0
-110 -112 0
-111 -112 0
-113 -114 0
-113 -115 0
-113 -116 0
-113 -117 0
-113 -118 0
-113 -119 0
-114 -115 0
-114 -116 0
-114 -117 0
-114 -118 0
-114 -119 0
-115 -116 0
-115 -117 0
-115 -118 0
-115 -119 0
-116 -117 0
-116 -118 0
-116 -119 0
-117 -118 0
-117 -119 0
-118 -119 0
-120 -121 0
-120 -122 0
-120 -123 0
-120 -124 0
-120 -125 0
-120 -126 0
-121 -122 0
-121 -123 0
-121 -124 0
-121 -125 0
-121 -126 0
-122 -123 0
-122 -124 0
-122 -125 0
-122 -126 0
-123 -124 0
-123 -125 0
-123 -126 0
-124 -125 0
-124 -126 0
-125 -126 0
-127 -128 0
-127 -129 0
-127 -130 0
-127 -131 0
-127 -132 0
-127 -133 0
-128 -129 0
-128 -130 0
-128 -131 0
-128 -132 0
-128 -133 0
-129 -130 0
-129 -131 0
-129 -132 0
-129 -133 0
-130 -131 0
-130 -132 0
-130 -133 0
-131 -132 0
-131 -133 0
-132 -133 0
-134 -135 0
-134 -136 0
-134 -137 0
-134 -138 0
-134 -139 0
-134 -140 0
-135 -136 0
-135 -137 0
-135 -138 0
-135 -139 0
-135 -140 0
-136 -137 0
-136 -138 0
-136 -139 0
-136 -140 0
-137 -138 0
-137 -139 0
-137 -140 0
-138 -139 0
-138 -140 0
-139 -140 0
-141 -142 0
-141 -143 0
-141 -144 0
-141 -145 0
-141 -146 0
-141 -147 0
-142 -143 0
-142 -144 0
-142 -145 0
-142 -146 0
-142 -147 0
-143 -144 0
-143 -145 0
-143 -146 0
-143 -147 0
-144 -145 0
-144 -146 0
-144 -147 0
-145 -146 0
-145 -147 0
-146 -147 0
-148 -149 0
-148 -150 0
-148 -151 0
-148 -152 0
-148 -153 0
-148 -154 0
-149 -150 0
-149 -151 0
-149 -152 0
-149 -153 0
-149 -154 0
-150 -151 0
-150 -152 0
-150 -153 0
-150 -154 0
-151 -152 0
-151 -153 0
-151 -154 0
-152 -153 0
-152 -154 0
-153 -154 0
-155 -156 0
-155 -157 0
-155 -158 0
-155 -159 0
-155 -160 0
-155 -161 0
-156 -157 0
-156 -158 0
-156 -159 0
-156 -160 0
-156 -161 0
-157 -158 0
-157 -159 0
-157 -160 0
-157 -161 0
-158 -159 0
-158 -160 0
-158 -161 0
-159 -160 0
-159 -161 0
-160 -161 0
-162 -163 0
-162 -164 0
-162 -165 0
-162 -166 0
-162 -167 0
-162 -168 0
-163 -164 0
-163 -165 0
-163 -166 0
-163 -167 0
-163 -168 0
-164 -165 0
-164 -166 0
-164 -167 0
-164 -168 0
-165 -166 0
-165 -167 0
-165 -168 0
-166 -167 0
-166 -168 0
-167 -168 0
-169 -170 0
-169 -171 0
-169 -172 0
-169 -173 0
-169 -174 0
-169 -175 0
-170 -171 0
-170 -172 0
-170 -173 0
-170 -174 0
-170 -175 0
-171 -172 0
-171 -173 0
-171 -174 0
-171 -175 0
-172 -173 0
-172 -174 0
-172 -175 0
-173 -174 0
-173 -175 0
-174 -175 0
-176 -177 0
-176 -178 0
-176 -179 0
-176 -180 0
-176 -181 0
-176 -182 0
-177 -178 0
-177 -179 0
-177 -180 0
-177 -181 0
-177 -182 0
-178 -179 0
-178 -180 0
-178 -181 0
-178 -182 0
-179 -180 0
-179 -181 0
-179 -182 0
-180 -181 0
-180 -182 0
-181 -182 0
-183 -184 0
-183 -185 0
-183 -186 0
-183 -187 0
-183 -188 0
-183 -189 0
-184 -185 0
-184 -186 0
-184 -187 0
-184 -188 0
-184 -189 0
-185 -186 0
-185 -187 0
-185 -188 0
-185 -189 0
-186 -187 0
-186 -188 0
-186 -189 0
-187 -188 0
-187 -189 0
-188 -189 0
-190 -191 0
-190 -192 0
-190 -193 0
-190 -194 0
-190 -195 0
-190 -196 0
-191 -192 0
-191 -193 0
-191 -194 0
-191 -195 0
-191 -196 0
-192 -193 0
-192 -194 0
-192 -195 0
-192 -196 0
-193 -194 0
-193 -195 0
-193 -196 0
-194 -195 0
-194 -196 0
-195 -196 0
-197 -198 0
-197 -199 0
-197 -200 0
-197 -201 0
-197 -202 0
-197 -203 0
-198 -199 0
-198 -200 0
-198 -201 0
-198 -202 0
-198 -203 0
-199 -200 0
-199 -201 0
-199 -202 0
-199 -203 0
-200 -201 0
-200 -202 0
-200 -203 0
-201 -202 0
-201 -203 0
-202 -203 0
-204 -205 0
-204 -206 0
-204 -207 0
-204 -208 0
-204 -209 0
-204 -210 0
-205 -206 0
-205 -207 0
-205 -208 0
-205 -209 0
-205 -210 0
-206 -207 0
-206 -208 0
-206 -209 0
-206 -210 0
-207 -208 0
-207 -209 0
-207 -210 0
-208 -209 0
-208 -210 0
-209 -210 0
-211 -212 0
-211 -213 0
-211 -214 0
-211 -215 0
-211 -216 0
-211 -217 0
-212 -213 0
-212 -214 0
-212 -215 0
-212 -216 0
-212 -217 0
-213 -214 0
-213 -215 0
-213 -216 0
-213 -217 0
-214 -215 0
-214 -216 0
-214 -217 0
-215 -216 0
-215 -217 0
-216 -217 0
-218 -219 0
-218 -220 0
-218 -221 0
-218 -222 0
-218 -223 0
-218 -224 0
-219 -220 0
-219 -221 0
-219 -222 0
-219 -223 0
-219 -224 0
-220 -221 0
-220 -222 0
-220 -223 0
-220 -224 0
-221 -222 0
-221 -223 0
-221 -224 0
-222 -223 0
-222 -224 0
-223 -224 0
-225 -226 0
-225 -227 0
-225 -228 0
-225 -229 0
-225 -230 0
-225 -231 0
-226 -227 0
-226 -228 0
-226 -229 0
-226 -230 0
-226 -231 0
-227 -228 0
-227 -229 0
-227 -230 0
-227 -231 0
-228 -229 0
-228 -230 0
-228 -231 0
-229 -230 0
-229 -231 0
-230 -231 0
-232 -233 0
-232 -234 0
-232 -235 0
-232 -236 0
-232 -237 0
-232 -238 0
-233 -234 0
-233 -235 0
-233 -236 0
-233 -237 0
-233 -238 0
-234 -235 0
-234 -236 0
-234 -237 0
-234 -238 0
-235 -236 0
-235 -237 0
-235 -238 0
-236 -237 0
-236 -238 0
-237 -238 0
-239 -240 0
-239 -241 0
-239 -242 0
-239 -243 0
-239 -244 0
-239 -245 0
-240 -241 0
-240 -242 0
-240 -243 0
-240 -244 0
-240 -245 0
-241 -242 0
-241 -243 0
-241 -244 0
-241 -245 0
-242 -243 0
-242 -244 0
-242 -245 0
-243 -244 0
-243 -245 0
-244 -245 0
-246 -247 0
-246 -248 0
-246 -249 0
-246 -250 0
-246 -251 0
-246 -252 0
-247 -248 0
-247 -249 0
-247 -250 0
-247 -251 0
-247 -252 0
-248 -249 0
-248 -250 0
-248 -251 0
-248 -252 0
-249 -250 0
-249 -251 0
-249 -252 0
-250 -251 0
-250 -252 0
-251 -252 0
-253 -254 0
-253 -255 0
-253 -256 0
-253 -257 0
-253 -258 0
-253 -259 0
-254 -255 0
-254 -256 0
-254 -257 0
-254 -258 0
-254 -259 0
-255 -256 0
-255 -257 0
-255 -258 0
-255 -259 0
-256 -257 0
-256 -258 0
-256 -259 0
-257 -258 0
-257 -259 0
-258 -259 0
-260 -261 0
-260 -262 0
-260 -263 0
-260 -264 0
-260 -265 0
-260 -266 0
-261 -262 0
-261 -263 0
-261 -264 0
-261 -265 0
-261 -266 0
-262 -263 0
-262 -264 0
-262 -265 0
-262 -266 0
-263 -264 0
-263 -265 0
-263 -266 0
-264 -265 0
-264 -266 0
-265 -266 0
-267 -268 0
-267 -269 0
-267 -270 0
-267 -271 0
-267 -272 0
-267 -273 0
-268 -269 0
-268 -270 0
-268 -271 0
-268 -272 0
-268 -273 0
-269 -270 0
-269 -271 0
-269 -272 0
-269 -273 0
-270 -271 0
-270 -272 0
-270 -273 0
-271 -272 0
-271 -273 0
-272 -273 0
-274 -275 0
-274 -276 0
-274 -277 0
-274 -278 0
-274 -279 0
-274 -280 0
-275 -276 0
-275 -277 0
-275 -278 0
-275 -279 0
-275 -280 0
-276 -277 0
-276 -278 0
-276 -279 0
-276 -280 0
-277 -278 0
-277 -279 0
-277 -280 0
-278 -279 0
-278 -280 0
-279 -280 0
-281 -282 0
-281 -283 0
-281 -284 0
-281 -285 0
-281 -286 0
-281 -287 0
-282 -283 0
-282 -284 0
-282 -285 0
-282 -286 0
-282 -287 0
-283 -284 0
-283 -285 0
-283 -286 0
-283 -287 0
-284 -285 0
-284 -286 0
-284 -287 0
-285 -286 0
-285 -287 0
-286 -287 0
-288 -289 0
-288 -290 0
-288 -291 0
-288 -292 0
-288 -293 0
-288 -294 0
-289 -290 0
-289 -291 0
-289 -292 0
-289 -293 0
-289 -294 0
-290 -291 0
-290 -292 0
-290 -293 0
-290 -294 0
-291 -292 0
-291 -293 0
-291 -294 0
-292 -293 0
-292 -294 0
-293 -294 0
-295 -296 0
-295 -297 0
-295 -298 0
-295 -299 0
-295 -300 0
-295 -301 0
-296 -297 0
-296 -298 0
-296 -299 0
-296 -300 0
-296 -301 0
-297 -298 0
-297 -299 0
-297 -300 0
-297 -301 0
-298 -299 0
-298 -300 0
-298 -301 0
-299 -300 0
-299 -301 0
-300 -301 0
-302 -303 0
-302 -304 0
-302 -305 0
-302 -306 0
-302 -307 0
-302 -308 0
-303 -304 0
-303 -305 0
-303 -306 0
-303 -307 0
-303 -308 0
-304 -305 0
-304 -306 0
-304 -307 0
-304 -308 0
-305 -306 0
-305 -307 0
-305 -308 0
-306 -307 0
-306 -308 0
-307 -308 0
-309 -310 0
-309 -311 0
-309 -312 0
-309 -313 0
-309 -314 0
-309 -315 0
-310 -311 0
-310 -312 0
-310 -313 0
-310 -314 0
-310 -315 0
-311 -312 0
-311 -313 0
-311 -314 0
-311 -315 0
-312 -313 0
-312 -314 0
-312 -315 0
-313 -314 0
-313 -315 0
-314 -315 0
-316 -317 0
-316 -318 0
-316 -319 0
-316 -320 0
-316 -321 0
-316 -322 0
-317 -318 0
-317 -319 0
-317 -320 0
-317 -321 0
-317 -322 0
-318 -319 0
-318 -320 0
-318 -321 0
-318 -322 0
-319 -320 0
-319 -321 0
-319 -322 0
-320 -321 0
-320 -322 0
-321 -322 0
-323 -324 0
-323 -325 0
-323 -326 0
-323 -327 0
-323 -328 0
-323 -329 0
-324 -325 0
-324 -326 0
-324 -327 0
-324 -328 0
-324 -329 0
-325 -326 0
-325 -327 0
-325 -328 0
-325 -329 0
-326 -327 0
-326 -328 0
-326 -329 0
-327 -328 0
-327 -329 0
-328 -329 0
-330 -331 0
-330 -332 0
-330 -333 0
-330 -334 0
-330 -335 0
-330 -336 0
-331 -332 0
-331 -333 0
-331 -334 0
-331 -335 0
-331 -336 0
-332 -333 0
-332 -334 0
-332 -335 0
-332 -336 0
-333 -334 0
-333 -335 0
-333 -336 0
-334 -335 0
-334 -336 0
-335 -336 0
-337 -338 0
-337 -339 0
-337 -340 0
-337 -341 0
-337 -342 0
-337 -343 0
-338 -339 0
-338 -340 0
-338 -341 0
-338 -342 0
-338 -343 0
-339 -340 0
-339 -341 0
-339 -342 0
-339 -343 0
-340 -341 0
-340 -342 0
-340 -343 0
-341 -342 0
-341 -343 0
-342 -343 0
-344 -345 0
-344 -346 0
-344 -347 0
-344 -348 0
-344 -349 0
-344 -350 0
-345 -346 0
-345 -347 0
-345 -348 0
-345 -349 0
-345 -350 0
-346 -347 0
-346 -348 0
-346 -349 0
-346 -350 0
-347 -348 0
-347 -349 0
-347 -350 0
-348 -349 0
-348 -350 0
-349 -350 0
-6 -22 0
-2 -25 0
-4 -26 0
-1 -24 0
-2 -36 0
-3 -41 0
-2 -41 0
-3 -40 0
-2 -45 0
-7 -45 0
-3 -47 0
-7 -47 0
-3 -78 0
-4 -79 0
-4 -83 0
-5 -80 0
-3 -98 0
-3 -93 0
-1 -97 0
-5 -94 0
-2 -110 0
-7 -111 0
-7 -106 0
-1 -111 0
-3 -132 0
-7 -127 0
-7 -129 0
-1 -128 0
-3 -145 0
-6 -146 0
-2 -143 0
-4 -143 0
-6 -155 0
-4 -160 0
-5 -155 0
-2 -156 0
-3 -191 0
-3 -190 0
-3 -195 0
-2 -193 0
-6 -204 0
-1 -205 0
-4 -208 0
-7 -207 0
-5 -231 0
-7 -229 0
-6 -226 0
-7 -227 0
-7 -239 0
-3 -240 0
-6 -240 0
-3 -243 0
-4 -269 0
-7 -269 0
-3 -268 0
-4 -267 0
-5 -279 0
-1 -277 0
-3 -280 0
-3 -277 0
-2 -309 0
-5 -314 0
-3 -315 0
-2 -311 0
-3 -327 0
-1 -325 0
-2 -328 0
-4 -327 0
-7 -342 0
-4 -342 0
-5 -343 0
-4 -340 0
-14 -56 0
-8 -52 0
-13 -51 0
-14 -55 0
-12 -59 0
-10 -62 0
-12 -57 0
-11 -58 0
-13 -79 0
-14 -84 0
-13 -78 0
-12 -82 0
-14 -103 0
-11 -100 0
-11 -99 0
-13 -101 0
-14 -108 0
-10 -109 0
-10 -107 0
-8 -107 0
-10 -129 0
-8 -130 0
-9 -130 0
-10 -133 0
-14 -173 0
-8 -170 0
-9 -172 0
-9 -169 0
-8 -179 0
-12 -179 0
-9 -177 0
-13 -179 0
-11 -196 0
-8 -190 0
-8 -195 0
-12 -194 0
-11 -211 0
-12 -214 0
-12 -217 0
-12 -213 0
-9 -232 0
-8 -236 0
-14 -234 0
-9 -236 0
-9 -255 0
-13 -257 0
-8 -259 0
-9 -254 0
-11 -295 0
-12 -301 0
-11 -298 0
-14 -300 0
-13 -318 0
-11 -319 0
-9 -317 0
-12 -322 0
-13 -332 0
-9 -333 0
-8 -331 0
-14 -330 0
-19 -59 0
-20 -63 0
-16 -62 0
-21 -63 0
-16 -81 0
-21 -82 0
-15 -83 0
-16 -84 0
-15 -108 0
-16 -106 0
-17 -112 0
-19 -110 0
-17 -124 0
-20 -125 0
-18 -124 0
-18 -123 0
-15 -128 0
-21 -127 0
-18 -130 0
-15 -131 0
-18 -153 0
-15 -148 0
-16 -149 0
-16 -150 0
-18 -158 0
-18 -159 0
-21 -161 0
-19 -159 0
-15 -188 0
-15 -183 0
-15 -184 0
-19 -187 0
-16 -193 0
-21 -190 0
-21 -192 0
-18 -196 0
-21 -217 0
-16 -217 0
-21 -211 0
-17 -211 0
-17 -225 0
-17 -227 0
-16 -230 0
-18 -231 0
-17 -239 0
-17 -245 0
-20 -241 0
-16 -245 0
-21 -249 0
-20 -248 0
-18 -252 0
-15 -249 0
-17 -279 0
-18 -278 0
-21 -276 0
-18 -280 0
-16 -284 0
-16 -287 0
-19 -286 0
-17 -284 0
-20 -326 0
-17 -325 0
-20 -325 0
-20 -324 0
-20 -340 0
-20 -338 0
-15 -343 0
-17 -338 0
-23 -39 0
-25 -41 0
-28 -37 0
-23 -41 0
-25 -61 0
-24 -57 0
-24 -63 0
-23 -63 0
-26 -69 0
-23 -68 0
-27 -68 0
-25 -67 0
-23 -77 0
-23 -71 0
-25 -77 0
-22 -74 0
-24 -93 0
-22 -93 0
-26 -96 0
-28 -94 0
-26 -106 0
-25 -111 0
-27 -106 0
-26 -108 0
-23 -131 0
-22 -127 0
-28 -131 0
-28 -129 0
-27 -154 0
-24 -148 0
-26 -148 0
-23 -151 0
-28 -162 0
-27 -167 0
-27 -163 0
-23 -166 0
-22 -181 0
-22 -180 0
-26 -182 0
-26 -177 0
-22 -202 0
-27 -200 0
-25 -197 0
-26 -202 0
-22 -209 0
-26 -204 0
-27 -210 0
-28 -210 0
-27 -242 0
-26 -241 0
-27 -240 0
-23 -242 0
-27 -256 0
-22 -255 0
-24 -257 0
-25 -254 0
-22 -272 0
-23 -269 0
-24 -273 0
-27 -268 0
-28 -311 0
-28 -313 0
-22 -312 0
-23 -312 0
-25 -334 0
-27 -334 0
-25 -336 0
-25 -331 0
-26 -346 0
-28 -345 0
-27 -345 0
-22 -349 0
-35 -42 0
-30 -42 0
-31 -41 0
-33 -38 0
-32 -58 0
-30 -57 0
-34 -59 0
-34 -61 0
-34 -108 0
-33 -106 0
-35 -107 0
-35 -112 0
-34 -188 0
-29 -185 0
-33 -188 0
-33 -183 0
-30 -200 0
-34 -198 0
-31 -200 0
-30 -202 0
-33 -254 0
-34 -258 0
-32 -253 0
-31 -259 0
-32 -308 0
-30 -302 0
-30 -307 0
-34 -308 0
-29 -328 0
-34 -329 0
-35 -329 0
-31 -327 0
-31 -341 0
-34 -337 0
-31 -338 0
-34 -338 0
-30 -344 0
-30 -348 0
-31 -350 0
-32 -344 0
-40 -44 0
-37 -48 0
-39 -49 0
-42 -47 0
-36 -115 0
-36 -113 0
-42 -118 0
-40 -113 0
-39 -122 0
-39 -125 0
-36 -125 0
-40 -122 0
-38 -127 0
-41 -128 0
-36 -130 0
-40 -131 0
-42 -163 0
-36 -162 0
-38 -166 0
-40 -164 0
-36 -170 0
-38 -172 0
-41 -174 0
-42 -170 0
-41 -177 0
-41 -176 0
-38 -177 0
-42 -178 0
-36 -185 0
-37 -185 0
-37 -184 0
-41 -188 0
-40 -190 0
-36 -190 0
-40 -195 0
-37 -191 0
-37 -200 0
-42 -202 0
-42 -198 0
-39 -203 0
-41 -219 0
-38 -219 0
-36 -220 0
-39 -224 0
-41 -227 0
-40 -230 0
-36 -230 0
-39 -225 0
-39 -234 0
-40 -235 0
-39 -233 0
-40 -236 0
-39 -240 0
-40 -244 0
-42 -242 0
-38 -239 0
-40 -279 0
-36 -279 0
-39 -276 0
-38 -280 0
-41 -300 0
-37 -297 0
-39 -300 0
-40 -299 0
-40 -319 0
-38 -318 0
-39 -318 0
-36 -318 0
-42 -338 0
-36 -338 0
-41 -342 0
-41 -337 0
-48 -51 0
-47 -56 0
-45 -54 0
-48 -56 0
-45 -62 0
-49 -63 0
-48 -61 0
-46 -59 0
-48 -83 0
-46 -80 0
-43 -82 0
-44 -79 0
-43 -97 0
-45 -95 0
-49 -95 0
-45 -98 0
-49 -137 0
-49 -134 0
-46 -138 0
-44 -136 0
-46 -143 0
-48 -146 0
-44 -141 0
-48 -141 0
-46 -171 0
-49 -169 0
-47 -169 0
-43 -169 0
-44 -176 0
-43 -181 0
-47 -180 0
-48 -181 0
-45 -195 0
-43 -190 0
-48 -192 0
-47 -196 0
-47 -197 0
-43 -199 0
-48 -200 0
-46 -201 0
-48 -236 0
-45 -237 0
-47 -233 0
-44 -237 0
-47 -250 0
-46 -250 0
-46 -246 0
-49 -250 0
-48 -259 0
-43 -254 0
-48 -258 0
-45 -255 0
-47 -261 0
-46 -261 0
-48 -266 0
-46 -262 0
-49 -306 0
-45 -302 0
-47 -302 0
-48 -302 0
-48 -346 0
-49 -348 0
-44 -350 0
-49 -344 0
-52 -82 0
-53 -83 0
-53 -78 0
-54 -79 0
-51 -145 0
-53 -141 0
-52 -146 0
-54 -145 0
-52 -165 0
-51 -162 0
-56 -166 0
-52 -164 0
-50 -231 0
-52 -227 0
-53 -230 0
-52 -231 0
-56 -252 0
-50 -250 0
-52 -246 0
-55 -248 0
-51 -281 0
-56 -284 0
-52 -286 0
-53 -285 0
-56 -303 0
-50 -308 0
-51 -304 0
-55 -305 0
-55 -338 0
-55 -339 0
-52 -342 0
-56 -337 0
-60 -81 0
-58 -83 0
-58 -84 0
-60 -82 0
-59 -125 0
-61 -123 0
-58 -122 0
-57 -123 0
-62 -151 0
-58 -149 0
-58 -154 0
-62 -153 0
-63 -195 0
-59 -195 0
-61 -191 0
-59 -190 0
-60 -201 0
-60 -200 0
-62 -198 0
-61 -198 0
-60 -226 0
-59 -225 0
-61 -227 0
-57 -231 0
-59 -241 0
-62 -242 0
-58 -240 0
-61 -244 0
-57 -265 0
-58 -263 0
-61 -263 0
-60 -262 0
-58 -275 0
-58 -280 0
-60 -276 0
-63 -275 0
-58 -306 0
-61 -305 0
-62 -307 0
-62 -305 0
-57 -311 0
-62 -313 0
-60 -315 0
-61 -315 0
-69 -79 0
-68 -79 0
-69 -84 0
-70 -82 0
-65 -90 0
-66 -90 0
-65 -91 0
-66 -85 0
-70 -96 0
-65 -96 0
-68 -95 0
-69 -98 0
-65 -109 0
-68 -111 0
-67 -111 0
-66 -108 0
-67 -115 0
-70 -117 0
-67 -113 0
-69 -119 0
-66 -151 0
-65 -148 0
-66 -152 0
-65 -153 0
-70 -176 0
-64 -176 0
-65 -176 0
-68 -178 0
-68 -202 0
-68 -198 0
-69 -201 0
-66 -201 0
-67 -204 0
-65 -209 0
-66 -210 0
-65 -205 0
-64 -211 0
-67 -211 0
-65 -212 0
-65 -213 0
-67 -218 0
-69 -219 0
-69 -223 0
-65 -223 0
-66 -279 0
-65 -277 0
-64 -278 0
-65 -274 0
-67 -281 0
-69 -281 0
-64 -281 0
-70 -282 0
-64 -288 0
-68 -289 0
-64 -292 0
-64 -291 0
-66 -349 0
-65 -346 0
-70 -347 0
-68 -346 0
-73 -170 0
-72 -169 0
-74 -170 0
-76 -171 0
-71 -229 0
-71 -231 0
-75 -228 0
-71 -228 0
-74 -237 0
-74 -236 0
-71 -237 0
-77 -235 0
-72 -263 0
-71 -260 0
-71 -262 0
-72 -262 0
-76 -269 0
-72 -270 0
-71 -268 0
-76 -272 0
-77 -317 0
-72 -321 0
-73 -320 0
-77 -322 0
-72 -330 0
-72 -332 0
-77 -330 0
-77 -331 0
-80 -126 0
-79 -124 0
-79 -121 0
-80 -125 0
-83 -134 0
-79 -139 0
-83 -140 0
-79 -138 0
-81 -147 0
-78 -144 0
-84 -145 0
-80 -146 0
-80 -154 0
-79 -150 0
-82 -148 0
-78 -152 0
-81 -158 0
-79 -156 0
-83 -158 0
-78 -159 0
-81 -183 0
-81 -188 0
-80 -187 0
-81 -184 0
-78 -241 0
-80 -245 0
-81 -245 0
-80 -241 0
-81 -259 0
-80 -257 0
-84 -255 0
-80 -254 0
-82 -271 0
-82 -273 0
-83 -273 0
-84 -273 0
-82 -307 0
-84 -307 0
-78 -304 0
-82 -305 0
-84 -323 0
-83 -325 0
-82 -327 0
-83 -323 0
-83 -334 0
-81 -330 0
-80 -335 0
-83 -330 0
-83 -339 0
-84 -340 0
-84 -343 0
-81 -339 0
-88 -106 0
-87 -107 0
-85 -112 0
-87 -108 0
-85 -117 0
-91 -117 0
-86 -117 0
-91 -115 0
-90 -143 0
-91 -143 0
-86 -144 0
-88 -146 0
-89 -153 0
-88 -153 0
-86 -148 0
-86 -153 0
-89 -157 0
-88 -161 0
-91 -156 0
-88 -158 0
-86 -198 0
-85 -198 0
-90 -199 0
-86 -199 0
-86 -226 0
-85 -228 0
-89 -227 0
-90 -228 0
-88 -245 0
-89 -242 0
-85 -241 0
-86 -241 0
-87 -272 0
-89 -268 0
-88 -269 0
-91 -272 0
-89 -274 0
-90 -277 0
-87 -276 0
-86 -278 0
-91 -305 0
-91 -302 0
-88 -302 0
-87 -305 0
-98 -164 0
-96 -164 0
-97 -166 0
-95 -163 0
-98 -210 0
-95 -208 0
-92 -207 0
-93 -204 0
-93 -227 0
-93 -225 0
-95 -231 0
-96 -230 0
-92 -274 0
-94 -278 0
-92 -276 0
-93 -275 0
-93 -284 0
-93 -286 0
-97 -284 0
-94 -287 0
-94 -288 0
-98 -288 0
-93 -292 0
-93 -290 0
-95 -305 0
-94 -303 0
-94 -306 0
-92 -307 0
-94 -322 0
-97 -316 0
-94 -318 0
-96 -319 0
-102 -123 0
-105 -125 0
-103 -126 0
-102 -121 0
-102 -149 0
-99 -148 0
-99 -150 0
-103 -149 0
-103 -156 0
-100 -155 0
-101 -160 0
-105 -155 0
-102 -192 0
-99 -193 0
-100 -192 0
-101 -193 0
-101 -202 0
-105 -202 0
-102 -198 0
-104 -199 0
-104 -209 0
-101 -209 0
-100 -204 0
-103 -210 0
-102 -220 0
-99 -221 0
-105 -220 0
-104 -218 0
-104 -235 0
-102 -232 0
-104 -233 0
-103 -234 0
-101 -251 0
-100 -251 0
-102 -247 0
-104 -249 0
-105 -273 0
-99 -267 0
-105 -269 0
-104 -268 0
-100 -281 0
-100 -284 0
-102 -286 0
-101 -287 0
-100 -305 0
-104 -303 0
-100 -308 0
-99 -306 0
-104 -311 0
-105 -313 0
-105 -310 0
-105 -309 0
-112 -123 0
-107 -122 0
-107 -121 0
-111 -125 0
-111 -135 0
-109 -139 0
-109 -140 0
-107 -137 0
-110 -142 0
-112 -141 0
-112 -146 0
-110 -144 0
-108 -161 0
-108 -158 0
-106 -156 0
-110 -160 0
-108 -207 0
-107 -206 0
-106 -206 0
-111 -207 0
-107 -221 0
-106 -220 0
-110 -219 0
-111 -224 0
-111 -227 0
-111 -230 0
-109 -229 0
-107 -230 0
-108 -237 0
-109 -238 0
-109 -235 0
-111 -236 0
-106 -245 0
-112 -239 0
-107 -243 0
-109 -242 0
-109 -271 0
-106 -272 0
-108 -270 0
-111 -273 0
-111 -307 0
-107 -305 0
-106 -305 0
-106 -304 0
-106 -323 0
-112 -327 0
-111 -327 0
-111 -324 0
-112 -349 0
-108 -345 0
-110 -347 0
-110 -346 0
-119 -125 0
-114 -125 0
-118 -120 0
-115 -125 0
-114 -168 0
-114 -167 0
-116 -165 0
-113 -167 0
-119 -169 0
-116 -170 0
-117 -169 0
-118 -174 0
-114 -193 0
-119 -195 0
-113 -196 0
-117 -190 0
-114 -225 0
-115 -230 0
-113 -225 0
-113 -230 0
-116 -241 0
-117 -241 0
-113 -241 0
-116 -244 0
-116 -325 0
-118 -323 0
-119 -327 0
-114 -324 0
-113 -333 0
-115 -335 0
-113 -331 0
-119 -336 0
-121 -133 0
-125 -128 0
-125 -132 0
-121 -130 0
-121 -147 0
-122 -144 0
-125 -146 0
-126 -147 0
-121 -216 0
-121 -215 0
-120 -214 0
-122 -215 0
-126 -223 0
-123 -222 0
-125 -223 0
-124 -220 0
-126 -234 0
-121 -236 0
-122 -238 0
-122 -233 0
-126 -246 0
-124 -252 0
-124 -249 0
-125 -252 0
-122 -262 0
-121 -260 0
-124 -261 0
-124 -263 0
-125 -267 0
-125 -269 0
-126 -272 0
-121 -270 0
-122 -308 0
-126 -302 0
-120 -303 0
-121 -305 0
-129 -144 0
-129 -147 0
-129 -143 0
-131 -142 0
-128 -177 0
-131 -177 0
-128 -178 0
-130 -179 0
-127 -226 0
-133 -225 0
-129 -227 0
-129 -229 0
-133 -248 0
-129 -248 0
-127 -249 0
-131 -252 0
-129 -266 0
-128 -266 0
-133 -266 0
-132 -260 0
-130 -334 0
-127 -332 0
-130 -332 0
-129 -332 0
-137 -154 0
-136 -148 0
-136 -150 0
-140 -152 0
-136 -165 0
-135 -168 0
-137 -164 0
-134 -164 0
-138 -182 0
-139 -177 0
-137 -182 0
-136 -178 0
-134 -186 0
-139 -183 0
-139 -185 0
-140 -185 0
-136 -192 0
-139 -193 0
-135 -193 0
-134 -192 0
-137 -209 0
-139 -209 0
-136 -207 0
-135 -210 0
-140 -219 0
-134 -219 0
-134 -222 0
-137 -223 0
-138 -227 0
-134 -226 0
-140 -228 0
-139 -231 0
-140 -249 0
-139 -248 0
-134 -252 0
-135 -249 0
-138 -258 0
-138 -256 0
-135 -259 0
-139 -258 0
-137 -282 0
-134 -285 0
-139 -281 0
-135 -281 0
-135 -298 0
-136 -295 0
-134 -295 0
-136 -301 0
-134 -310 0
-140 -310 0
-140 -315 0
-140 -312 0
-136 -316 0
-137 -320 0
-136 -319 0
-137 -321 0
-145 -153 0
-143 -153 0
-147 -154 0
-143 -154 0
-142 -158 0
-142 -161 0
-145 -155 0
-144 -158 0
-141 -172 0
-145 -173 0
-141 -174 0
-146 -174 0
-142 -188 0
-144 -186 0
-143 -187 0
-141 -186 0
-146 -197 0
-145 -203 0
-144 -197 0
-143 -201 0
-144 -240 0
-143 -244 0
-144 -245 0
-146 -239 0
-145 -257 0
-145 -258 0
-143 -258 0
-146 -259 0
-145 -267 0
-141 -269 0
-147 -271 0
-146 -273 0
-145 -296 0
-144 -301 0
-147 -300 0
-145 -297 0
-146 -319 0
-141 -319 0
-142 -319 0
-145 -316 0
-141 -330 0
-142 -330 0
-147 -334 0
-147 -331 0
-151 -240 0
-154 -242 0
-154 -245 0
-152 -243 0
-153 -263 0
-149 -262 0
-148 -265 0
-148 -263 0
-153 -297 0
-154 -299 0
-150 -296 0
-148 -301 0
-152 -310 0
-148 -313 0
-152 -309 0
-153 -309 0
-153 -318 0
-151 -318 0
-149 -319 0
-150 -322 0
-150 -348 0
-151 -349 0
-150 -345 0
-149 -349 0
-155 -183 0
-156 -187 0
-159 -189 0
-159 -185 0
-158 -207 0
-156 -206 0
-155 -206 0
-159 -210 0
-155 -237 0
-160 -238 0
-157 -235 0
-159 -236 0
-160 -275 0
-155 -278 0
-160 -274 0
-159 -274 0
-155 -291 0
-155 -292 0
-158 -288 0
-155 -290 0
-158 -302 0
-156 -307 0
-157 -305 0
-159 -304 0
-155 -324 0
-157 -323 0
-158 -329 0
-158 -325 0
-165 -203 0
-163 -201 0
-163 -202 0
-163 -200 0
-166 -259 0
-162 -257 0
-168 -254 0
-167 -256 0
-163 -296 0
-168 -299 0
-167 -298 0
-165 -299 0
-166 -308 0
-164 -304 0
-165 -308 0
-164 -305 0
-166 -314 0
-165 -310 0
-163 -314 0
-163 -315 0
-169 -177 0
-170 -180 0
-174 -176 0
-170 -181 0
-172 -211 0
-171 -211 0
-175 -215 0
-171 -214 0
-174 -220 0
-172 -220 0
-171 -222 0
-170 -223 0
-174 -233 0
-171 -232 0
-174 -236 0
-174 -235 0
-171 -315 0
-175 -312 0
-171 -309 0
-169 -313 0
-173 -345 0
-174 -345 0
-169 -346 0
-171 -344 0
-180 -245 0
-177 -239 0
-178 -241 0
-182 -244 0
-181 -247 0
-177 -247 0
-177 -251 0
-178 -246 0
-181 -275 0
-176 -274 0
-180 -277 0
-182 -279 0
-176 -310 0
-182 -312 0
-177 -315 0
-178 -313 0
-182 -328 0
-176 -327 0
-181 -328 0
-181 -327 0
-176 -344 0
-182 -347 0
-182 -348 0
-182 -345 0
-188 -230 0
-189 -227 0
-186 -227 0
-184 -230 0
-189 -247 0
-183 -247 0
-188 -250 0
-187 -248 0
-191 -249 0
-190 -249 0
-191 -248 0
-194 -251 0
-190 -256 0
-195 -258 0
-194 -257 0
-195 -256 0
-193 -260 0
-194 -261 0
-193 -266 0
-192 -260 0
-193 -268 0
-194 -271 0
-191 -273 0
-192 -272 0
-194 -292 0
-192 -289 0
-192 -291 0
-195 -288 0
-192 -348 0
-194 -346 0
-190 -344 0
-194 -350 0
-202 -272 0
-203 -270 0
-200 -269 0
-198 -268 0
-199 -283 0
-197 -281 0
-198 -286 0
-203 -282 0
-200 -300 0
-197 -298 0
-197 -299 0
-201 -297 0
-198 -326 0
-197 -326 0
-197 -324 0
-199 -323 0
-200 -332 0
-202 -331 0
-201 -336 0
-199 -332 0
-208 -215 0
-210 -214 0
-205 -212 0
-208 -212 0
-204 -273 0
-205 -270 0
-204 -267 0
-208 -273 0
-208 -299 0
-207 -296 0
-205 -298 0
-206 -297 0
-214 -224 0
-213 -219 0
-216 -219 0
-213 -218 0
-215 -277 0
-217 -274 0
-217 -278 0
-216 -276 0
-216 -287 0
-215 -283 0
-215 -282 0
-211 -281 0
-212 -326 0
-217 -328 0
-217 -323 0
-211 -325 0
-213 -336 0
-215 -331 0
-215 -336 0
-217 -335 0
-215 -339 0
-214 -342 0
-214 -339 0
-217 -342 0
-222 -258 0
-224 -253 0
-221 -259 0
-218 -258 0
-220 -267 0
-219 -267 0
-222 -268 0
-218 -272 0
-224 -280 0
-218 -274 0
-221 -278 0
-223 -275 0
-220 -290 0
-219 -291 0
-221 -288 0
-222 -289 0
-218 -305 0
-224 -308 0
-221 -302 0
-220 -307 0
-222 -315 0
-221 -314 0
-222 -312 0
-224 -311 0
-219 -328 0
-219 -324 0
-218 -329 0
-221 -327 0
-221 -330 0
-219 -336 0
-224 -335 0
-224 -333 0
-221 -346 0
-224 -347 0
-221 -344 0
-219 -344 0
-225 -238 0
-227 -232 0
-227 -236 0
-228 -232 0
-229 -259 0
-231 -256 0
-230 -256 0
-225 -258 0
-228 -260 0
-225 -265 0
-230 -263 0
-226 -262 0
-227 -273 0
-230 -269 0
-225 -268 0
-230 -267 0
-230 -279 0
-230 -276 0
-227 -276 0
-230 -280 0
-231 -337 0
-228 -341 0
-227 -340 0
-225 -339 0
-236 -241 0
-233 -245 0
-236 -239 0
-238 -239 0
-238 -256 0
-238 -253 0
-232 -257 0
-237 -258 0
-238 -265 0
-237 -264 0
-237 -260 0
-238 -261 0
-237 -272 0
-234 -270 0
-236 -270 0
-232 -267 0
-233 -299 0
-237 -301 0
-232 -300 0
-236 -300 0
-234 -307 0
-234 -302 0
-237 -302 0
-232 -304 0
-233 -331 0
-233 -330 0
-238 -330 0
-235 -336 0
-238 -345 0
-237 -348 0
-234 -344 0
-233 -344 0
-243 -254 0
-240 -257 0
-239 -255 0
-242 -255 0
-241 -273 0
-245 -272 0
-244 -268 0
-244 -267 0
-239 -287 0
-243 -286 0
-239 -285 0
-242 -287 0
-243 -288 0
-244 -288 0
-243 -290 0
-239 -288 0
-242 -301 0
-240 -300 0
-243 -296 0
-241 -300 0
-240 -323 0
-245 -323 0
-239 -326 0
-242 -327 0
-252 -283 0
-247 -287 0
-249 -287 0
-252 -286 0
-251 -316 0
-251 -322 0
-251 -318 0
-252 -320 0
-250 -323 0
-251 -327 0
-252 -325 0
-247 -327 0
-250 -345 0
-246 -344 0
-252 -345 0
-251 -344 0
-256 -274 0
-254 -275 0
-258 -275 0
-259 -280 0
-254 -314 0
-256 -315 0
-255 -309 0
-254 -312 0
-254 -333 0
-255 -331 0
-254 -331 0
-258 -332 0
-262 -312 0
-262 -311 0
-264 -310 0
-261 -310 0
-262 -325 0
-260 -328 0
-261 -327 0
-260 -325 0
-260 -333 0
-264 -333 0
-265 -336 0
-262 -335 0
-262 -350 0
-264 -347 0
-261 -349 0
-260 -349 0
-271 -328 0
-267 -325 0
-267 -323 0
-269 -326 0
-279 -282 0
-274 -287 0
-275 -283 0
-278 -284 0
-277 -321 0
-277 -322 0
-280 -321 0
-279 -319 0
-277 -346 0
-276 -349 0
-280 -345 0
-277 -345 0
-286 -298 0
-282 -300 0
-282 -298 0
-286 -297 0
-283 -333 0
-281 -334 0
-287 -334 0
-285 -332 0
-288 -315 0
-289 -315 0
-289 -311 0
-288 -314 0
-293 -335 0
-292 -335 0
-288 -333 0
-292 -336 0
-288 -350 0
-291 -350 0
-290 -344 0
-292 -347 0
-297 -345 0
-295 -344 0
-300 -347 0
-295 -349 0
-303 -344 0
-302 -350 0
-308 -350 0
-304 -346 0
-314 -316 0
-314 -319 0
-313 -322 0
-310 -321 0
-314 -332 0
-309 -330 0
-314 -335 0
-312 -334 0
-317 -342 0
-318 -339 0
-322 -341 0
-321 -340 0
-317 -349 0
-319 -344 0
-321 -348 0
-317 -347 0
-336 -342 0
-336 -341 0
-333 -337 0
-330 -339 0
